NAME: rue_15_10
TYPE: TSP
DIMENSION: 15
EDGE_WEIGHT_TYPE: EUC_2D
NODE_COORD_SECTION
1 31 11
2 3 29
3 1 30
4 37 38
5 2 16
6 32 6
7 6 29
8 8 10
9 11 37
10 8 31
11 1 28
12 40 21
13 12 38
14 12 27
15 6 1

